 vasp.5.4.1 24Jun15 (build Jul 13 2016 16:36:47) complex

 executed on           IFC91_ompi date 2020.03.31  16:02:52

 INCAR:
 POTCAR:    PAW_PBE Cd 06Sep2000
 POTCAR:    PAW_PBE F 08Apr2002
 POTCAR:    PAW_PBE Cd 06Sep2000
   VRHFIN =Cd : s2 d10

   TITEL  = PAW_PBE Cd 06Sep2000
   POMASS =  112.411; ZVAL   =   12.000    mass and valenz
   ENMAX  =  274.336; ENMIN  =  205.752 eV

 POTCAR:    PAW_PBE F 08Apr2002
   VRHFIN =F: s2p5

   TITEL  = PAW_PBE F 08Apr2002
   POMASS =   18.998; ZVAL   =    7.000    mass and valenz
   ENMAX  =  400.000; ENMIN  =  300.000 eV

 Optimization of the real space projectors (new method)

 maximal supplied QI-value         = 16.25
 optimisation between [QCUT,QGAM] = [ 11.54, 23.24] = [ 37.28,151.24] Ry
 Optimized for a Real-space Cutoff    1.49 Angstroem

   l    n(q)    QCUT    max X(q) W(low)/X(q) W(high)/X(q)  e(spline)
   2      9    11.539    73.106    0.18E-03    0.88E-04    0.18E-06
   2      9    11.539    71.731    0.19E-03    0.89E-04    0.19E-06
   0     10    11.539   146.509    0.42E-04    0.28E-04    0.31E-06
   0     10    11.539    95.017    0.39E-04    0.27E-04    0.30E-06
   1     10    11.539    36.165    0.52E-04    0.99E-04    0.10E-06
   1     10    11.539    31.530    0.47E-04    0.91E-04    0.92E-07
 Optimization of the real space projectors (new method)

 maximal supplied QI-value         = 24.76
 optimisation between [QCUT,QGAM] = [ 11.64, 23.27] = [ 37.91,151.63] Ry
 Optimized for a Real-space Cutoff    1.04 Angstroem

   l    n(q)    QCUT    max X(q) W(low)/X(q) W(high)/X(q)  e(spline)
   0      7    11.635    14.049    0.77E-04    0.36E-03    0.13E-06
   0      7    11.635     8.945    0.12E-03    0.48E-03    0.17E-06
   1      7    11.635     7.086    0.24E-03    0.44E-03    0.21E-06
   1      7    11.635     6.747    0.23E-03    0.35E-03    0.19E-06
  PAW_PBE Cd 06Sep2000                  :
  PAW_PBE F 08Apr2002                   :

 POSCAR: Cd1 F2
  positions in direct lattice
 exchange correlation table for  LEXCH =        8
   RHO(1)=    0.500       N(1)  =     2000
   RHO(2)=  100.500       N(2)  =     4000

 ion  position               nearest neighbor table
   1  0.000  0.000  0.000-   2 2.38   3 2.38   2 2.38   3 2.38   2 2.38   3 2.38   3 2.38   2 2.38

   2  0.750  0.750  0.750-   1 2.38   1 2.38   1 2.38   1 2.38
   3  0.250  0.250  0.250-   1 2.38   1 2.38   1 2.38   1 2.38

IMPORTANT INFORMATION: All symmetrisations will be switched off!
NOSYMM: (Re-)initialisation of all symmetry stuff for point group C_1.

 KPOINTS: manual

Automatic generation of k-mesh.
Space group operators:
 irot       det(A)        alpha          n_x          n_y          n_z        tau_x        tau_y        tau_z
    1     1.000000     0.000000     1.000000     0.000000     0.000000     0.000000     0.000000     0.000000

 Subroutine IBZKPT returns following result:

 Found     16 irreducible k-points:

 Following reciprocal coordinates:
            Coordinates               Weight
  0.250000  0.250000  0.250000     24.000000
  0.250000  0.000000  0.000000     24.000000
  0.000000 -0.000000 -0.250000     24.000000
  0.000000  0.250000  0.000000     24.000000
 -0.250000  0.250000  0.250000     24.000000
  0.250000 -0.250000  0.250000     24.000000
  0.250000  0.250000 -0.250000     24.000000
  0.250000  0.000000  0.500000     24.000000
 -0.250000  0.500000  0.500000     24.000000
  0.250000  0.500000  0.000000     24.000000
  0.000000  0.500000 -0.250000     24.000000
  0.500000 -0.000000 -0.250000     24.000000
  0.500000  0.500000  0.250000     24.000000
  0.500000 -0.250000  0.500000     24.000000
  0.000000  0.250000  0.500000     24.000000
  0.500000  0.250000  0.000000     24.000000

 Following cartesian coordinates:
            Coordinates               Weight
  0.037164  0.026279  0.064370     24.000000
  0.074328 -0.026279  0.000000     24.000000
  0.037164  0.026279 -0.064370     24.000000
  0.000000  0.078836  0.000000     24.000000
 -0.111491  0.078836  0.064370     24.000000
  0.037164 -0.131394  0.064370     24.000000
  0.111491  0.078836 -0.064370     24.000000
  0.000000 -0.078836  0.128739     24.000000
 -0.148655  0.131394  0.128739     24.000000
  0.074328  0.131394  0.000000     24.000000
  0.037164  0.183951 -0.064370     24.000000
  0.185819 -0.026279 -0.064370     24.000000
  0.111491  0.078836  0.064370     24.000000
  0.074328 -0.183951  0.128739     24.000000
 -0.074328  0.026279  0.128739     24.000000
  0.148655  0.026279  0.000000     24.000000

 TETIRR: Found     96 inequivalent tetrahedra from      384

 I would recommend the setting:
   dimension x,y,z NGX =    29 NGY =   29 NGZ =   29
 SYSTEM =  unknown system
 POSCAR =  Cd1 F2

 Startparameter for this run:
   NWRITE =      2    write-flag & timer
   PREC   = accura    normal or accurate (medium, high low for compatibility)
   ISTART =      0    job   : 0-new  1-cont  2-samecut
   ICHARG =      0    charge: 1-file 2-atom 10-const
   ISPIN  =      2    spin polarized calculation?
   LNONCOLLINEAR =      F non collinear calculations
   LSORBIT =      F    spin-orbit coupling
   INIWAV =      1    electr: 0-lowe 1-rand  2-diag
   LASPH  =      F    aspherical Exc in radial PAW
   METAGGA=      F    non-selfconsistent MetaGGA calc.

 Electronic Relaxation 1
   ENCUT  =  520.0 eV  38.22 Ry    6.18 a.u.   7.22  7.22  7.22*2*pi/ulx,y,z
   ENINI  =  520.0     initial cutoff
   ENAUG  =  613.6 eV  augmentation charge cutoff
   NELM   =    100;   NELMIN=  2; NELMDL= -5     # of ELM steps
   EDIFF  = 0.1E-06   stopping-criterion for ELM
   LREAL  =      T    real-space projection
   NLSPLINE    = F    spline interpolate recip. space projectors
   LCOMPAT=      F    compatible to vasp.4.4
   GGA_COMPAT  = T    GGA compatible to vasp.4.4-vasp.4.6
   LMAXPAW     = -100 max onsite density
   LMAXMIX     =    2 max onsite mixed and CHGCAR
   VOSKOWN=      0    Vosko Wilk Nusair interpolation
   ROPT   =   -0.00025  -0.00025
 Ionic relaxation
   EDIFFG = 0.1E-05   stopping-criterion for IOM
   NSW    =      0    number of steps for IOM
   NBLOCK =      1;   KBLOCK =      1    inner block; outer block
   IBRION =     -1    ionic relax: 0-MD 1-quasi-New 2-CG
   NFREE  =      0    steps in history (QN), initial steepest desc. (CG)
   ISIF   =      3    stress and relaxation
   IWAVPR =     10    prediction:  0-non 1-charg 2-wave 3-comb
   ISYM   =      0    0-nonsym 1-usesym 2-fastsym
   LCORR  =      T    Harris-Foulkes like correction to forces

   POTIM  = 0.5000    time-step for ionic-motion
   TEIN   =    0.0    initial temperature
   TEBEG  =    0.0;   TEEND  =   0.0 temperature during run
   SMASS  =  -3.00    Nose mass-parameter (am)
   estimated Nose-frequenzy (Omega)   =  0.10E-29 period in steps =****** mass=  -0.345E-27a.u.
   SCALEE = 1.0000    scale energy and forces
   NPACO  =    256;   APACO  = 16.0  distance and # of slots for P.C.
   PSTRESS=    0.0 pullay stress

  Mass of Ions in am
   POMASS = 112.41 19.00
  Ionic Valenz
   ZVAL   =  12.00  7.00
  Atomic Wigner-Seitz radii
  virtual crystal weights
   VCA    =   1.00  1.00
   NELECT =      26.0000    total number of electrons
   NUPDOWN=      -1.0000    fix difference up-down

 DOS related values:
   EMIN   =  10.00;   EMAX   =-10.00  energy-range for DOS
   EFERMI =   0.00
   ISMEAR =    -5;   SIGMA  =   0.05  broadening in eV -4-tet -1-fermi 0-gaus

 Electronic relaxation 2 (details)
   IALGO  =     38    algorithm
   LDIAG  =      T    sub-space diagonalisation (order eigenvalues)
   LSUBROT=      F    optimize rotation matrix (better conditioning)
   TURBO    =      0    0=normal 1=particle mesh
   IRESTART =      0    0=no restart 2=restart with 2 vectors
   NREBOOT  =      0    no. of reboots
   NMIN     =      0    reboot dimension
   EREF     =   0.00    reference energy to select bands
   IMIX   =      4    mixing-type and parameters
     AMIX     =   0.40;   BMIX     =  1.00
     AMIX_MAG =   1.60;   BMIX_MAG =  1.00
     AMIN     =   0.10
     WC   =   100.;   INIMIX=   1;  MIXPRE=   1;  MAXMIX= -45

 Intra band minimization:
   WEIMIN = 0.0000     energy-eigenvalue tresh-hold
   EBREAK =  0.14E-08  absolut break condition
   DEPER  =   0.30     relativ break condition

   TIME   =   0.40     timestep for ELM

  volume/ion in A,a.u.               =      13.81        93.18
  Fermi-wavevector in a.u.,A,eV,Ry     =   1.401666  2.648764 26.730920  1.964667
  Thomas-Fermi vector in A             =   2.524504

 Write flags
   LWAVE  =      T    write WAVECAR
   LCHARG =      T    write CHGCAR
   LVTOT  =      F    write LOCPOT, total local potential
   LVHAR  =      F    write LOCPOT, Hartree potential only
   LELF   =      F    write electronic localiz. function (ELF)
   LORBIT =     11    0 simple, 1 ext, 2 COOP (PROOUT)

 Dipole corrections
   LMONO  =      F    monopole corrections only (constant potential shift)
   LDIPOL =      F    correct potential (dipole corrections)
   IDIPOL =      0    1-x, 2-y, 3-z, 4-all directions
   EPSILON=  1.0000000 bulk dielectric constant

 Exchange correlation treatment:
   GGA     =    --    GGA type
   VOSKOWN=      0    Vosko Wilk Nusair interpolation
   LHFCALC =     F    Hartree Fock is set to
   LHFONE  =     F    Hartree Fock one center treatment
   AEXX    =    0.0000 exact exchange contribution

 Linear response parameters
   LEPSILON=     F    determine dielectric tensor
   LRPA    =     F    only Hartree local field effects (RPA)
   LNABLA  =     F    use nabla operator in PAW spheres
   LVEL    =     F    velocity operator in full k-point grid
   LINTERFAST=   F  fast interpolation
   KINTER  =     0    interpolate to denser k-point grid
   CSHIFT  =0.1000    complex shift for real part using Kramers Kronig
   OMEGAMAX=  -1.0    maximum frequency
   DEG_THRESHOLD= 0.2000000E-02 threshold for treating states as degnerate
   RTIME   =    0.100 relaxation time in fs

 Orbital magnetization related:
   ORBITALMAG=     F  switch on orbital magnetization
   LCHIMAG   =     F  perturbation theory with respect to B field
   DQ        =  0.001000  dq finite difference perturbation B field

 Static calculation
 charge density and potential will be updated during run
 spin polarized calculation
 Variant of blocked Davidson
 Davidson routine will perform the subspace rotation
 perform sub-space diagonalisation
    after iterative eigenvector-optimisation
 modified Broyden-mixing scheme, WC =      100.0
 initial mixing is a Kerker type mixing with AMIX =  0.4000 and BMIX =      1.0000
 Hartree-type preconditioning will be used
 using additional bands            5
 real space projection scheme for non local part
 use partial core corrections
 calculate Harris-corrections to forces
   (improved forces if not selfconsistent)
 use gradient corrections
 use of overlap-Matrix (Vanderbilt PP)
 Fermi weights with tetrahedron method with Bloechl corrections

  energy-cutoff  :      520.00
  volume of cell :       41.43
      direct lattice vectors                 reciprocal lattice vectors
     3.363492000  0.000000000  1.941913000     0.297310058 -0.105114968  0.000000000
     1.121164000  3.171131000  1.941913000     0.000000000  0.315344904  0.000000000
     0.000000000  0.000000000  3.883826000    -0.148655029 -0.105114968  0.257478064

  length of vectors
     3.883826017  3.883826288  3.883826000     0.315344933  0.315344904  0.315344934

 k-points in units of 2pi/SCALE and weight: manual
   0.03716376  0.02627874  0.06436952       0.062
   0.07432751 -0.02627874  0.00000000       0.062
   0.03716376  0.02627874 -0.06436952       0.062
   0.00000000  0.07883623  0.00000000       0.062
  -0.11149127  0.07883623  0.06436952       0.062
   0.03716376 -0.13139371  0.06436952       0.062
   0.11149127  0.07883623 -0.06436952       0.062
   0.00000000 -0.07883623  0.12873903       0.062
  -0.14865503  0.13139371  0.12873903       0.062
   0.07432751  0.13139371  0.00000000       0.062
   0.03716376  0.18395119 -0.06436952       0.062
   0.18581879 -0.02627874 -0.06436952       0.062
   0.11149127  0.07883623  0.06436952       0.062
   0.07432751 -0.18395119  0.12873903       0.062
  -0.07432751  0.02627874  0.12873903       0.062
   0.14865503  0.02627874  0.00000000       0.062

 k-points in reciprocal lattice and weights: manual
   0.25000000  0.25000000  0.25000000       0.062
   0.25000000  0.00000000  0.00000000       0.062
   0.00000000 -0.00000000 -0.25000000       0.062
   0.00000000  0.25000000  0.00000000       0.062
  -0.25000000  0.25000000  0.25000000       0.062
   0.25000000 -0.25000000  0.25000000       0.062
   0.25000000  0.25000000 -0.25000000       0.062
   0.25000000  0.00000000  0.50000000       0.062
  -0.25000000  0.50000000  0.50000000       0.062
   0.25000000  0.50000000  0.00000000       0.062
   0.00000000  0.50000000 -0.25000000       0.062
   0.50000000 -0.00000000 -0.25000000       0.062
   0.50000000  0.50000000  0.25000000       0.062
   0.50000000 -0.25000000  0.50000000       0.062
   0.00000000  0.25000000  0.50000000       0.062
   0.50000000  0.25000000  0.00000000       0.062

 position of ions in fractional coordinates (direct lattice)
   0.00000000  0.00000000  0.00000000
   0.75000000  0.75000000  0.75000000
   0.25000000  0.25000000  0.25000000

 position of ions in cartesian coordinates  (Angst):
   0.00000000  0.00000000  0.00000000
   3.36349200  2.37834825  5.82573900
   1.12116400  0.79278275  1.94191300

 k-point  1 :   0.2500 0.2500 0.2500  plane waves:    1116
 k-point  2 :   0.2500 0.0000 0.0000  plane waves:    1116
 k-point  3 :   0.0000-0.0000-0.2500  plane waves:    1116
 k-point  4 :   0.0000 0.2500 0.0000  plane waves:    1116
 k-point  5 :  -0.2500 0.2500 0.2500  plane waves:    1116
 k-point  6 :   0.2500-0.2500 0.2500  plane waves:    1116
 k-point  7 :   0.2500 0.2500-0.2500  plane waves:    1116
 k-point  8 :   0.2500 0.0000 0.5000  plane waves:    1116
 k-point  9 :  -0.2500 0.5000 0.5000  plane waves:    1116
 k-point 10 :   0.2500 0.5000 0.0000  plane waves:    1116
 k-point 11 :   0.0000 0.5000-0.2500  plane waves:    1116
 k-point 12 :   0.5000-0.0000-0.2500  plane waves:    1116
 k-point 13 :   0.5000 0.5000 0.2500  plane waves:    1116
 k-point 14 :   0.5000-0.2500 0.5000  plane waves:    1116
 k-point 15 :   0.0000 0.2500 0.5000  plane waves:    1116
 k-point 16 :   0.5000 0.2500 0.0000  plane waves:    1116

 maximum and minimum number of plane-waves per node :      1116     1116

 maximum number of plane-waves:      1116
 maximum index in each direction:
   IXMAX=    7   IYMAX=    7   IZMAX=    7
   IXMIN=   -7   IYMIN=   -7   IZMIN=   -7

 NGX is ok and might be reduce to  30
 NGY is ok and might be reduce to  30
 NGZ is ok and might be reduce to  30

 serial   3D FFT for wavefunctions
 parallel 3D FFT for charge:
    minimum data exchange during FFTs selected (reduces bandwidth)

 Broyden mixing: mesh for mixing (old mesh)
   NGX = 15   NGY = 15   NGZ = 15
  (NGX  = 60   NGY  = 60   NGZ  = 60)
  gives a total of   3375 points

 charge density for first step will be calculated from the start-wavefunctions

 Maximum index for non-local projection operator         8685
 Maximum index for augmentation-charges         8947 (set IRDMAX)

 initial charge from wavefunction
 First call to EWALD:  gamma=   0.512
 Maximum number of real-space cells 3x 3x 3
 Maximum number of reciprocal cells 3x 3x 3

 FEWALD executed in parallel

----------------------------------------- Iteration    1(   1)  ---------------------------------------

 BZINTS: Fermi energy:-30.530342; 26.000000 electrons
         Band energy:***********;  BLOECHL correction:  0.000000

 eigenvalue-minimisations  :  1521
 total energy-change (2. order) :-0.5917271E+03  (-0.2763199E+04)
 number of electron      25.9999998 magnetization      -0.0000000
 augmentation part       -0.9961155 magnetization      -0.0067267

 Free energy of the ion-electron system (eV)
  alpha Z        PSCENC =       147.93194166
  Ewald energy   TEWEN  =     -1947.62834194
  -Hartree energ DENC   =       -49.25099381
  -exchange      EXHF   =         0.00000000
  -V(xc)+E(xc)   XCENC  =        49.01964678
  PAW double counting   =  21788975.80405397-21788947.64266430
  entropy T*S    EENTRO =         0.00000000
  eigenvalues    EBANDS =     -1432.36636191
  atomic energy  EATOM  =      2612.40559352
  Solvation  Ediel_sol  =         0.00000000
  free energy    TOTEN  =      -591.72712602 eV

  energy without entropy =     -591.72712602  energy(sigma->0) =     -591.72712602

[...]

 Broyden mixing:
  rms(total) = 0.23299E+03    rms(broyden)= 0.23299E+03
  rms(prec ) = 0.23529E+03
  weight for this iteration     100.00

[...]

 BZINTS: Fermi energy:-26.678266; 26.000000 electrons
         Band energy:-791.322621;  BLOECHL correction:  0.000000

 eigenvalue-minimisations  :  1251
 total energy-change (2. order) : 0.5926695E+03  (-0.4151779E+02)
 number of electron      25.9999993 magnetization      -0.0000000
 augmentation part       11.0302322 magnetization       0.0011997

[...]

 eigenvalues of (default mixing * dielectric matrix)
  average eigenvalue GAMMA=   2.3439
  2.3439

[...]

 BZINTS: Fermi energy: 10.331666; 26.000000 electrons
         Band energy: -20.613639;  BLOECHL correction:  0.000000

[...]

 BZINTS: Fermi energy: -1.618985; 26.000000 electrons
         Band energy:-215.742112;  BLOECHL correction:  0.000000

[...]

 eigenvalue-minimisations  :  1152
 total energy-change (2. order) :-0.8920233E-06  (-0.3616977E-06)
 number of electron      25.9999998 magnetization       0.0000000
 augmentation part        8.4567168 magnetization      -0.0000002

 Broyden mixing:
  rms(total) = 0.53111E-03    rms(broyden)= 0.53102E-03
  rms(prec ) = 0.82640E-03
  weight for this iteration     100.00

 eigenvalues of (default mixing * dielectric matrix)
  average eigenvalue GAMMA=   1.4255
  3.1742  2.6212  2.4991  2.4991  1.3914  1.1033  1.1033  1.1245  1.0374  0.7487
  0.7487  0.6616  0.6243  0.6201

[...]

----------------------------------------- Iteration    1(  20)  ---------------------------------------

[...]

 eigenvalue-minimisations  :  1026
 total energy-change (2. order) : 0.2413299E-07  (-0.4004738E-07)
 number of electron      25.9999998 magnetization       0.0000000
 augmentation part        8.4567168 magnetization      -0.0000002

 Free energy of the ion-electron system (eV)
  alpha Z        PSCENC =       147.93194166
  Ewald energy   TEWEN  =     -1947.62834194
  -Hartree energ DENC   =      -742.90443942
  -exchange      EXHF   =         0.00000000
  -V(xc)+E(xc)   XCENC  =        81.24555249
  PAW double counting   =      2486.97547121    -2460.06893326
  entropy T*S    EENTRO =         0.00000000
  eigenvalues    EBANDS =      -188.87712901
  atomic energy  EATOM  =      2612.40559352
  Solvation  Ediel_sol  =         0.00000000
  free energy    TOTEN  =       -10.92028475 eV

  energy without entropy =      -10.92028475  energy(sigma->0) =      -10.92028475

 average (electrostatic) potential at core
  the test charge radii are     1.0698  0.7167
  (the norm of the test charge is              1.0000)
       1 -39.5550       2 -78.1826       3 -78.1826

 E-fermi :  -1.9244     XC(G=0): -10.1044     alpha+bet : -6.6665

 spin component 1

 k-point     1 :       0.2500    0.2500    0.2500
  band No.  band energies     occupation
      1     -22.0808      1.00000
      2     -21.4268      1.00000
      3      -7.0291      1.00000
      4      -7.0291      1.00000
      5      -6.6760      1.00000
      6      -6.2419      1.00000
      7      -6.2419      1.00000
      8      -3.7264      1.00000
      9      -2.9606      1.00000
     10      -2.9606      1.00000
     11      -2.8179      1.00000
     12      -2.2136      1.00000
     13      -2.2136      1.00000
     14       2.9356      0.00000
     15       8.8225      0.00000
     16      11.4238      0.00000
     17      11.4238      0.00000
     18      16.6690      0.00000

[...]

 spin component 2

[...]

 k-point    16 :       0.5000    0.2500    0.0000
  band No.  band energies     occupation
      1     -21.8268      1.00000
      2     -21.6370      1.00000
      3      -6.7784      1.00000
      4      -6.6816      1.00000
      5      -6.3902      1.00000
      6      -6.1696      1.00000
      7      -6.1142      1.00000
      8      -4.7563      1.00000
      9      -3.8496      1.00000
     10      -3.8331      1.00000
     11      -2.5840      1.00000
     12      -2.1104      1.00000
     13      -1.9809      1.00000
     14       5.2270      0.00000
     15       7.9981      0.00000
     16      10.6127      0.00000
     17      12.1041      0.00000
     18      12.7686      0.00000

 soft charge-density along one line, spin component           1
         0         1         2         3         4         5         6         7         8         9
 total charge-density along one line

 soft charge-density along one line, spin component           2
         0         1         2         3         4         5         6         7         8         9
 total charge-density along one line

------------------------ aborting loop because EDIFF is reached ----------------------------------------

 total charge

# of ion     s       p       d       tot
  1        0.223   0.175   9.677  10.076
  2        1.739   4.327   0.000   6.067
  3        1.739   4.327   0.000   6.067
tot        3.702   8.830   9.677  22.209

 magnetization (x)

[...]

  FORCE on cell =-STRESS in cart. coord.  units (eV):
  Direction    XX          YY          ZZ          XY          YZ          ZX
  Alpha Z   147.93194   147.93194   147.93194
  Ewald    -649.20983  -649.20995  -649.20983     0.00000     0.00000     0.00000
  Hartree   247.63115   247.63108   247.63116     0.00000     0.00000     0.00000
  E(xc)    -143.94891  -143.94891  -143.94890     0.00000     0.00000     0.00000
  Local      23.11188    23.11204    23.11200     0.00004     0.00008     0.00011
  n-local  -170.76277  -170.76277  -170.76278    -0.00000    -0.00000    -0.00001
  augment    66.36991    66.36994    66.36982    -0.00003    -0.00006    -0.00008
  Kinetic   478.83663   478.83662   478.83665     0.00001     0.00001     0.00002
  Fock        0.00000     0.00000     0.00000     0.00000     0.00000     0.00000
  Total      -0.04000    -0.04000    -0.03994     0.00002     0.00003     0.00005
  in kB      -1.54698    -1.54717    -1.54483     0.00086     0.00135     0.00195

 VOLUME and BASIS-vectors are now :
  energy-cutoff  :      520.00
  volume of cell :       41.43
      direct lattice vectors                 reciprocal lattice vectors
     3.363492000  0.000000000  1.941913000     0.297310058 -0.105114968  0.000000000
     1.121164000  3.171131000  1.941913000     0.000000000  0.315344904  0.000000000
     0.000000000  0.000000000  3.883826000    -0.148655029 -0.105114968  0.257478064

  length of vectors
     3.883826017  3.883826288  3.883826000     0.315344933  0.315344904  0.315344934

 FORCES acting on ions
    electron-ion (+dipol)            ewald-force                    non-local-force                 convergence-correction
   0.309E-05 -.175E-05 -.129E-04   0.500E-14 0.770E-14 -.560E-15   0.185E-04 -.976E-05 -.527E-04   -.187E-04 0.100E-04 0.596E-04
   0.429E-04 0.874E-04 0.596E-04   -.197E-05 -.500E-04 -.659E-13   0.351E-04 0.479E-04 0.573E-04   -.735E-04 -.852E-04 -.113E-03
   -.647E-04 -.930E-04 -.542E-04   0.197E-05 0.500E-04 0.673E-13   -.555E-04 -.514E-04 -.513E-04   0.115E-03 0.943E-04 0.102E-03
   -.188E-04 -.740E-05 -.757E-05   0.145E-14 -.492E-15 0.842E-15   -.181E-05 -.133E-04 -.466E-04   0.233E-04 0.191E-04 0.486E-04

 POSITION                                       TOTAL-FORCE (eV/Angst)
      0.00000      0.00000      0.00000         0.000002     -0.000001     -0.000004
      3.36349      2.37835      5.82574         0.000002      0.000001      0.000006
      1.12116      0.79278      1.94191        -0.000004      0.000000     -0.000002
    total drift:                                0.000003     -0.000002     -0.000006

  FREE ENERGIE OF THE ION-ELECTRON SYSTEM (eV)
  free  energy   TOTEN  =       -10.92028475 eV

  energy  without entropy=      -10.92028475  energy(sigma->0) =      -10.92028475

 writing wavefunctions

 total charge

[...]

 magnetization (x)

# of ion     s       p       d       tot
  1        0.000   0.000  -0.000   0.000
  2        0.000  -0.000   0.000  -0.000
  3        0.000   0.000   0.000   0.000
tot        0.000  -0.000  -0.000   0.000

 BZINTS: Fermi energy: -1.924441; 26.000000 electrons
         Band energy:-188.877129;  BLOECHL correction:  0.000000